SECTION Graph
Nodes 632
Edges 1281
E 1 562 30
E 1 565 20
E 2 3 14
E 2 566 20
E 3 4 1
E 3 567 20
E 4 568 20
E 5 6 1
E 5 253 21
E 6 7 14
E 6 254 21
E 7 8 1
E 7 255 21
E 8 256 21
E 8 258 53
E 9 10 1
E 9 550 30
E 9 557 22
E 9 565 3
E 10 11 14
E 10 558 22
E 10 566 3
E 11 12 1
E 11 563 22
E 11 567 3
E 12 564 22
E 12 568 3
E 13 14 1
E 13 544 22
E 13 549 8
E 13 557 1
E 14 15 14
E 14 545 22
E 14 558 1
E 15 16 1
E 15 551 22
E 15 563 1
E 16 552 22
E 16 564 1
E 17 18 1
E 17 536 7
E 17 544 1
E 18 19 14
E 18 545 1
E 19 20 1
E 19 551 1
E 20 552 1
E 21 22 1
E 21 524 7
E 21 529 25
E 22 23 14
E 22 531 25
E 23 24 1
E 23 533 25
E 24 536 25
E 25 26 1
E 25 492 122
E 25 540 3
E 25 553 18
E 26 27 14
E 26 542 3
E 26 554 18
E 27 28 1
E 27 548 3
E 27 559 18
E 28 550 3
E 28 560 18
E 28 565 30
E 29 30 1
E 29 470 122
E 29 528 1
E 29 538 18
E 30 31 14
E 30 530 1
E 30 539 18
E 31 32 1
E 31 532 1
E 31 546 18
E 32 534 1
E 32 547 18
E 32 557 30
E 33 34 1
E 33 458 122
E 33 517 26
E 33 528 22
E 34 35 14
E 34 518 26
E 34 530 22
E 35 36 1
E 35 523 26
E 35 532 22
E 36 524 26
E 36 529 8
E 36 534 22
E 36 535 22
E 37 38 1
E 37 407 18
E 37 412 7
E 38 39 14
E 38 408 18
E 39 40 1
E 39 417 18
E 39 423 3
E 40 418 18
E 40 424 3
E 41 42 1
E 41 45 21
E 41 397 7
E 41 407 5
E 42 43 14
E 42 46 21
E 42 408 5
E 43 44 1
E 43 47 21
E 43 417 5
E 44 48 21
E 44 418 5
E 45 46 1
E 45 376 21
E 45 385 7
E 46 47 14
E 46 378 21
E 47 48 1
E 47 51 23
E 48 52 23
E 49 50 1
E 49 53 21
E 49 367 7
E 49 376 2
E 50 51 14
E 50 54 21
E 50 378 2
E 51 52 1
E 51 55 21
E 52 56 21
E 53 54 1
E 53 57 23
E 53 353 7
E 54 55 14
E 54 58 23
E 55 56 1
E 55 59 23
E 56 60 23
E 57 58 1
E 57 333 7
E 57 342 1
E 58 59 14
E 58 344 1
E 59 60 1
E 59 350 1
E 60 352 1
E 61 62 1
E 61 319 7
E 61 326 1
E 62 63 14
E 62 328 1
E 63 64 1
E 63 334 1
E 64 336 1
E 65 66 1
E 65 402 3
E 66 67 14
E 66 403 3
E 67 68 1
E 67 411 3
E 68 412 3
E 68 423 22
E 69 70 1
E 69 389 7
E 69 392 3
E 69 400 14
E 70 71 14
E 70 393 3
E 70 401 14
E 71 72 1
E 71 398 3
E 71 411 18
E 72 399 3
E 72 407 7
E 72 412 18
E 73 74 1
E 73 312 18
E 73 316 7
E 73 323 1
E 74 75 14
E 74 313 18
E 74 325 1
E 75 76 1
E 75 320 18
E 75 331 1
E 76 321 18
E 76 333 1
E 76 342 7
E 77 78 1
E 77 300 7
E 77 309 1
E 77 312 3
E 78 79 14
E 78 311 1
E 78 313 3
E 79 80 1
E 79 317 1
E 79 320 3
E 80 319 1
E 80 321 3
E 80 326 7
E 81 82 1
E 81 288 3
E 82 83 14
E 82 289 3
E 83 84 1
E 83 303 3
E 84 306 3
E 85 86 1
E 85 366 7
E 85 372 2
E 85 377 3
E 86 87 14
E 86 373 2
E 86 379 3
E 87 88 1
E 87 382 2
E 87 388 3
E 88 383 2
E 88 389 3
E 88 392 7
E 89 90 1
E 89 348 7
E 89 354 2
E 89 370 19
E 90 91 14
E 90 355 2
E 90 371 19
E 91 92 1
E 91 362 2
E 91 380 19
E 92 363 2
E 92 374 7
E 92 381 19
E 93 94 1
E 93 332 7
E 93 339 2
E 93 354 19
E 94 95 14
E 94 341 2
E 94 355 19
E 95 96 1
E 95 347 2
E 95 362 19
E 96 349 2
E 96 360 7
E 96 363 19
E 97 98 1
E 97 101 21
E 97 132 7
E 97 339 21
E 98 99 14
E 98 102 21
E 98 341 21
E 99 100 1
E 99 103 21
E 99 347 21
E 100 104 21
E 100 343 7
E 100 349 21
E 101 102 1
E 101 136 7
E 101 305 3
E 102 103 14
E 102 308 3
E 103 104 1
E 103 314 3
E 104 316 3
E 104 327 7
E 105 106 1
E 105 275 7
E 105 285 2
E 105 305 18
E 106 107 14
E 106 287 2
E 106 308 18
E 107 108 1
E 107 299 2
E 107 314 18
E 108 301 2
E 108 312 7
E 108 316 18
E 109 110 1
E 109 269 22
E 109 284 18
E 110 111 14
E 110 286 18
E 111 112 1
E 111 298 18
E 112 288 7
E 112 300 18
E 113 114 1
E 113 148 7
E 113 356 17
E 114 115 14
E 114 358 17
E 115 116 1
E 115 364 17
E 116 366 17
E 116 386 7
E 117 118 1
E 117 152 7
E 117 338 19
E 117 356 4
E 118 119 14
E 118 340 19
E 118 358 4
E 119 120 1
E 119 346 19
E 119 364 4
E 120 348 19
E 120 366 4
E 120 370 7
E 121 122 1
E 121 156 7
E 121 322 19
E 121 338 2
E 122 123 14
E 122 324 19
E 122 340 2
E 123 124 1
E 123 330 19
E 123 346 2
E 124 332 19
E 124 348 2
E 124 354 7
E 125 126 1
E 125 129 21
E 125 160 7
E 125 322 2
E 126 127 14
E 126 130 21
E 126 324 2
E 127 128 1
E 127 131 21
E 127 330 2
E 128 132 21
E 128 332 2
E 128 339 7
E 129 130 1
E 129 297 7
E 129 302 2
E 130 131 14
E 130 304 2
E 131 132 1
E 131 135 21
E 132 136 21
E 133 134 1
E 133 271 30
E 133 279 3
E 133 302 19
E 134 135 14
E 134 282 3
E 134 304 19
E 135 136 1
E 135 294 3
E 136 296 3
E 137 138 1
E 137 267 30
E 137 268 19
E 137 272 2
E 138 139 14
E 138 269 19
E 138 273 2
E 139 140 1
E 139 274 2
E 140 275 2
E 140 285 7
E 141 142 1
E 141 416 7
E 142 143 14
E 142 405 24
E 143 144 1
E 143 413 24
E 143 432 22
E 144 415 24
E 144 434 22
E 145 146 1
E 145 149 21
E 145 180 60
E 146 147 14
E 146 150 21
E 146 405 76
E 147 148 1
E 147 151 21
E 147 413 76
E 148 152 21
E 148 415 76
E 149 150 1
E 149 153 21
E 150 151 14
E 150 154 21
E 151 152 1
E 151 155 21
E 152 156 21
E 153 154 1
E 153 307 19
E 154 155 14
E 154 310 19
E 155 156 1
E 155 315 19
E 156 318 19
E 157 158 1
E 157 281 21
E 157 292 7
E 157 307 2
E 158 159 14
E 158 283 21
E 158 310 2
E 159 160 1
E 159 295 21
E 159 315 2
E 160 297 21
E 160 318 2
E 161 162 1
E 161 426 7
E 161 429 2
E 161 437 17
E 162 163 14
E 162 430 2
E 162 438 17
E 163 164 1
E 163 435 2
E 163 456 66
E 164 436 2
E 164 458 66
E 164 517 162
E 165 166 1
E 165 404 22
E 165 429 27
E 166 167 14
E 166 406 22
E 166 430 27
E 167 168 1
E 167 414 22
E 167 435 27
E 168 416 22
E 168 432 22
E 168 436 27
E 169 170 1
E 169 173 23
E 169 404 1
E 170 171 14
E 170 174 23
E 170 406 1
E 171 172 1
E 171 175 23
E 171 414 1
E 172 176 23
E 172 416 1
E 173 174 1
E 173 177 23
E 174 175 14
E 174 178 23
E 175 176 1
E 175 179 23
E 176 180 23
E 176 405 8
E 177 178 1
E 178 179 14
E 179 180 1
E 181 182 1
E 181 276 2
E 182 183 14
E 182 278 2
E 183 184 1
E 183 290 2
E 184 292 2
E 184 307 7
E 185 186 1
E 185 189 23
E 185 276 23
E 186 187 14
E 186 190 23
E 186 278 23
E 187 188 1
E 187 270 19
E 187 290 23
E 188 271 19
E 188 281 9
E 188 291 22
E 188 292 23
E 189 190 1
E 189 216 286
E 190 191 14
E 191 192 1
E 191 266 19
E 191 270 4
E 192 267 19
E 192 271 4
E 192 277 30
E 193 194 1
E 193 521 21
E 193 526 7
E 194 195 14
E 194 522 21
E 195 196 1
E 195 527 21
E 196 200 23
E 197 198 1
E 197 508 21
E 197 512 7
E 197 521 2
E 198 199 14
E 198 510 21
E 198 522 2
E 199 200 1
E 199 514 21
E 199 527 2
E 200 516 21
E 201 202 1
E 201 205 23
E 201 502 7
E 201 508 2
E 202 203 14
E 202 206 23
E 202 510 2
E 203 204 1
E 203 207 23
E 203 514 2
E 204 208 23
E 204 516 2
E 205 206 1
E 205 477 23
E 205 489 7
E 206 207 14
E 206 480 23
E 207 208 1
E 207 487 23
E 208 490 23
E 209 210 1
E 209 421 2
E 210 211 14
E 210 422 2
E 211 212 1
E 211 425 2
E 212 426 2
E 212 429 7
E 213 214 1
E 213 265 74
E 214 215 14
E 215 216 1
E 216 266 282
E 216 268 294
E 217 218 1
E 217 519 2
E 218 219 14
E 218 520 2
E 219 220 1
E 219 525 2
E 220 526 2
E 221 222 1
E 221 453 18
E 221 476 25
E 222 223 14
E 222 454 18
E 222 479 25
E 223 224 1
E 223 459 18
E 223 486 25
E 224 460 18
E 224 473 7
E 224 489 25
E 225 226 1
E 225 443 18
E 225 453 7
E 226 227 14
E 226 444 18
E 226 454 7
E 227 228 1
E 227 445 18
E 227 459 7
E 228 447 18
E 228 460 7
E 228 465 22
E 229 230 1
E 229 409 13
E 229 439 49
E 230 231 14
E 230 410 13
E 230 440 49
E 231 232 1
E 231 419 13
E 231 441 49
E 232 420 13
E 232 427 7
E 232 442 49
E 233 234 1
E 233 493 2
E 234 235 14
E 234 495 2
E 235 236 1
E 235 499 2
E 236 501 2
E 236 507 7
E 237 238 1
E 237 475 2
E 237 493 21
E 238 239 14
E 238 478 2
E 238 495 21
E 239 240 1
E 239 485 2
E 239 499 21
E 240 488 2
E 240 497 7
E 240 501 21
E 241 242 1
E 241 475 23
E 242 243 14
E 242 478 23
E 243 244 1
E 243 485 23
E 244 476 7
E 244 488 23
E 245 257 1
E 246 247 13
E 246 257 1
E 247 248 1
E 248 409 30
E 249 250 1
E 249 258 4
E 250 251 14
E 250 259 4
E 251 252 1
E 251 260 4
E 252 261 4
E 253 254 1
E 254 255 14
E 255 256 1
E 256 262 53
E 258 259 1
E 258 262 21
E 259 260 14
E 259 263 21
E 260 261 1
E 260 264 21
E 261 265 21
E 262 263 1
E 263 264 14
E 264 265 1
E 266 267 1
E 268 269 1
E 270 271 1
E 272 273 1
E 272 277 17
E 273 274 14
E 273 280 17
E 274 275 1
E 274 294 18
E 275 296 18
E 276 278 1
E 277 279 1
E 277 280 1
E 278 290 14
E 279 282 1
E 280 282 1
E 281 283 1
E 282 294 14
E 283 295 14
E 284 285 1
E 284 286 1
E 285 287 1
E 286 287 1
E 286 298 14
E 287 299 14
E 288 289 1
E 288 309 17
E 289 303 14
E 289 311 17
E 290 292 1
E 291 293 1
E 291 295 2
E 293 297 2
E 293 302 7
E 294 296 1
E 295 297 1
E 296 305 7
E 298 299 1
E 298 300 1
E 299 301 1
E 300 301 1
E 302 304 1
E 303 306 1
E 303 317 17
E 305 308 1
E 306 319 17
E 307 310 1
E 308 314 14
E 309 311 1
E 310 315 14
E 311 317 14
E 312 313 1
E 313 320 14
E 314 316 1
E 315 318 1
E 317 319 1
E 318 322 7
E 320 321 1
E 322 324 1
E 323 325 1
E 323 327 2
E 324 330 14
E 325 329 2
E 325 331 14
E 326 328 1
E 326 342 21
E 327 329 1
E 327 343 21
E 328 334 14
E 328 344 21
E 329 335 14
E 329 345 21
E 330 332 1
E 331 333 1
E 331 335 2
E 333 337 2
E 334 336 1
E 334 350 21
E 335 337 1
E 335 351 21
E 336 352 21
E 337 353 21
E 338 340 1
E 339 341 1
E 340 346 14
E 341 347 14
E 342 344 1
E 343 345 1
E 343 357 21
E 344 350 14
E 345 351 14
E 345 359 21
E 346 348 1
E 347 349 1
E 349 357 7
E 350 352 1
E 351 353 1
E 351 365 21
E 353 367 21
E 354 355 1
E 355 362 14
E 356 358 1
E 357 359 1
E 357 360 2
E 358 364 14
E 359 361 2
E 359 365 14
E 360 361 1
E 360 374 21
E 361 368 14
E 361 375 21
E 362 363 1
E 364 366 1
E 365 367 1
E 365 368 2
E 367 369 2
E 368 369 1
E 368 384 21
E 369 376 7
E 369 385 21
E 370 371 1
E 370 372 2
E 371 373 2
E 371 380 14
E 372 373 1
E 373 382 14
E 374 375 1
E 374 390 21
E 375 384 14
E 375 391 21
E 376 378 1
E 377 379 1
E 377 386 14
E 379 387 14
E 379 388 14
E 380 381 1
E 380 382 2
E 381 383 2
E 382 383 1
E 383 390 7
E 384 385 1
E 384 396 21
E 385 397 21
E 386 387 1
E 387 394 14
E 388 389 1
E 388 394 14
E 389 395 14
E 390 391 1
E 390 392 2
E 391 393 2
E 391 396 14
E 392 393 1
E 393 398 14
E 394 395 1
E 395 400 7
E 396 397 1
E 396 398 2
E 397 399 2
E 398 399 1
E 400 401 1
E 400 402 4
E 401 403 4
E 402 403 1
E 403 411 14
E 404 406 1
E 405 413 14
E 406 414 14
E 407 408 1
E 408 417 14
E 409 410 1
E 410 419 14
E 411 412 1
E 413 415 1
E 414 416 1
E 417 418 1
E 419 420 1
E 420 421 11
E 421 422 1
E 421 427 17
E 422 425 14
E 422 428 17
E 423 424 1
E 424 517 191
E 425 426 1
E 425 431 17
E 426 433 17
E 427 428 1
E 427 449 72
E 428 431 14
E 428 451 72
E 429 430 1
E 430 435 14
E 431 433 1
E 431 446 49
E 432 434 1
E 433 437 7
E 433 448 49
E 434 517 168
E 435 436 1
E 437 438 1
E 437 450 49
E 438 452 49
E 438 517 160
E 439 440 1
E 439 443 23
E 440 441 14
E 440 444 23
E 441 442 1
E 441 445 23
E 442 446 22
E 442 447 23
E 443 444 1
E 444 445 14
E 445 447 1
E 446 448 1
E 446 455 23
E 447 449 7
E 448 450 7
E 448 457 23
E 449 451 1
E 449 463 25
E 450 452 1
E 450 461 23
E 451 455 14
E 451 464 25
E 452 456 14
E 452 462 23
E 453 454 1
E 454 459 14
E 455 457 1
E 455 465 18
E 456 458 1
E 456 469 23
E 457 461 7
E 457 466 18
E 458 470 23
E 459 460 1
E 460 463 7
E 461 462 1
E 461 481 25
E 462 469 14
E 462 482 25
E 463 464 1
E 463 473 18
E 464 471 14
E 464 474 18
E 465 466 1
E 465 467 4
E 466 468 4
E 466 538 145
E 467 468 1
E 467 471 3
E 468 472 3
E 468 540 145
E 469 470 1
E 469 491 25
E 470 492 25
E 471 472 1
E 471 483 18
E 472 481 7
E 472 484 18
E 473 474 1
E 473 477 2
E 474 480 2
E 474 483 14
E 475 478 1
E 476 479 1
E 476 494 23
E 477 480 1
E 478 485 14
E 479 486 14
E 479 496 23
E 480 487 14
E 481 482 1
E 482 491 14
E 483 484 1
E 483 487 2
E 484 490 2
E 484 553 145
E 485 488 1
E 486 489 1
E 486 500 23
E 487 490 1
E 488 494 7
E 489 502 23
E 490 555 145
E 491 492 1
E 493 495 1
E 494 496 1
E 494 497 2
E 495 499 14
E 496 498 2
E 496 500 14
E 497 498 1
E 497 505 21
E 498 503 14
E 498 506 21
E 499 501 1
E 500 502 1
E 500 503 2
E 501 505 7
E 502 504 2
E 503 504 1
E 503 511 21
E 504 508 7
E 504 512 21
E 505 506 1
E 505 507 2
E 506 509 2
E 506 511 14
E 507 509 1
E 507 519 21
E 508 510 1
E 509 513 14
E 509 520 21
E 510 514 14
E 511 512 1
E 511 513 2
E 512 515 2
E 513 515 1
E 513 525 21
E 514 516 1
E 515 521 7
E 515 526 21
E 517 518 1
E 518 523 14
E 519 520 1
E 520 525 14
E 521 522 1
E 522 527 14
E 523 524 1
E 525 526 1
E 528 530 1
E 529 531 1
E 529 541 23
E 530 532 14
E 531 533 14
E 531 543 23
E 532 534 1
E 533 535 1
E 533 536 1
E 534 541 7
E 535 537 1
E 535 549 22
E 536 537 1
E 537 544 7
E 538 539 1
E 538 540 4
E 539 542 4
E 539 546 14
E 540 542 1
E 541 543 1
E 542 548 14
E 543 549 14
E 544 545 1
E 545 551 14
E 546 547 1
E 546 548 4
E 547 550 4
E 548 550 1
E 551 552 1
E 553 554 1
E 553 555 2
E 554 556 2
E 554 559 14
E 555 556 1
E 556 561 14
E 557 558 1
E 558 563 14
E 559 560 1
E 559 561 2
E 560 562 2
E 561 562 1
E 563 564 1
E 565 566 1
E 566 567 14
E 567 568 1
E 1 569 100000
E 2 569 100000
E 3 569 100000
E 4 569 100000
E 5 570 100000
E 6 570 100000
E 7 570 100000
E 8 570 100000
E 9 571 100000
E 10 571 100000
E 11 571 100000
E 12 571 100000
E 13 572 100000
E 14 572 100000
E 15 572 100000
E 16 572 100000
E 17 573 100000
E 18 573 100000
E 19 573 100000
E 20 573 100000
E 21 574 100000
E 22 574 100000
E 23 574 100000
E 24 574 100000
E 25 575 100000
E 26 575 100000
E 27 575 100000
E 28 575 100000
E 29 576 100000
E 30 576 100000
E 31 576 100000
E 32 576 100000
E 33 577 100000
E 34 577 100000
E 35 577 100000
E 36 577 100000
E 37 578 100000
E 38 578 100000
E 39 578 100000
E 40 578 100000
E 41 579 100000
E 42 579 100000
E 43 579 100000
E 44 579 100000
E 45 580 100000
E 46 580 100000
E 47 580 100000
E 48 580 100000
E 49 581 100000
E 50 581 100000
E 51 581 100000
E 52 581 100000
E 53 582 100000
E 54 582 100000
E 55 582 100000
E 56 582 100000
E 57 583 100000
E 58 583 100000
E 59 583 100000
E 60 583 100000
E 61 584 100000
E 62 584 100000
E 63 584 100000
E 64 584 100000
E 65 585 100000
E 66 585 100000
E 67 585 100000
E 68 585 100000
E 69 586 100000
E 70 586 100000
E 71 586 100000
E 72 586 100000
E 73 587 100000
E 74 587 100000
E 75 587 100000
E 76 587 100000
E 77 588 100000
E 78 588 100000
E 79 588 100000
E 80 588 100000
E 81 589 100000
E 82 589 100000
E 83 589 100000
E 84 589 100000
E 85 590 100000
E 86 590 100000
E 87 590 100000
E 88 590 100000
E 89 591 100000
E 90 591 100000
E 91 591 100000
E 92 591 100000
E 93 592 100000
E 94 592 100000
E 95 592 100000
E 96 592 100000
E 97 593 100000
E 98 593 100000
E 99 593 100000
E 100 593 100000
E 101 594 100000
E 102 594 100000
E 103 594 100000
E 104 594 100000
E 105 595 100000
E 106 595 100000
E 107 595 100000
E 108 595 100000
E 109 596 100000
E 110 596 100000
E 111 596 100000
E 112 596 100000
E 113 597 100000
E 114 597 100000
E 115 597 100000
E 116 597 100000
E 117 598 100000
E 118 598 100000
E 119 598 100000
E 120 598 100000
E 121 599 100000
E 122 599 100000
E 123 599 100000
E 124 599 100000
E 125 600 100000
E 126 600 100000
E 127 600 100000
E 128 600 100000
E 129 601 100000
E 130 601 100000
E 131 601 100000
E 132 601 100000
E 133 602 100000
E 134 602 100000
E 135 602 100000
E 136 602 100000
E 137 603 100000
E 138 603 100000
E 139 603 100000
E 140 603 100000
E 141 604 100000
E 142 604 100000
E 143 604 100000
E 144 604 100000
E 145 605 100000
E 146 605 100000
E 147 605 100000
E 148 605 100000
E 149 606 100000
E 150 606 100000
E 151 606 100000
E 152 606 100000
E 153 607 100000
E 154 607 100000
E 155 607 100000
E 156 607 100000
E 157 608 100000
E 158 608 100000
E 159 608 100000
E 160 608 100000
E 161 609 100000
E 162 609 100000
E 163 609 100000
E 164 609 100000
E 165 610 100000
E 166 610 100000
E 167 610 100000
E 168 610 100000
E 169 611 100000
E 170 611 100000
E 171 611 100000
E 172 611 100000
E 173 612 100000
E 174 612 100000
E 175 612 100000
E 176 612 100000
E 177 613 100000
E 178 613 100000
E 179 613 100000
E 180 613 100000
E 181 614 100000
E 182 614 100000
E 183 614 100000
E 184 614 100000
E 185 615 100000
E 186 615 100000
E 187 615 100000
E 188 615 100000
E 189 616 100000
E 190 616 100000
E 191 616 100000
E 192 616 100000
E 193 617 100000
E 194 617 100000
E 195 617 100000
E 196 617 100000
E 197 618 100000
E 198 618 100000
E 199 618 100000
E 200 618 100000
E 201 619 100000
E 202 619 100000
E 203 619 100000
E 204 619 100000
E 205 620 100000
E 206 620 100000
E 207 620 100000
E 208 620 100000
E 209 621 100000
E 210 621 100000
E 211 621 100000
E 212 621 100000
E 213 622 100000
E 214 622 100000
E 215 622 100000
E 216 622 100000
E 217 623 100000
E 218 623 100000
E 219 623 100000
E 220 623 100000
E 221 624 100000
E 222 624 100000
E 223 624 100000
E 224 624 100000
E 225 625 100000
E 226 625 100000
E 227 625 100000
E 228 625 100000
E 229 626 100000
E 230 626 100000
E 231 626 100000
E 232 626 100000
E 233 627 100000
E 234 627 100000
E 235 627 100000
E 236 627 100000
E 237 628 100000
E 238 628 100000
E 239 628 100000
E 240 628 100000
E 241 629 100000
E 242 629 100000
E 243 629 100000
E 244 629 100000
E 245 630 100000
E 246 630 100000
E 247 630 100000
E 248 630 100000
E 249 631 100000
E 250 631 100000
E 251 631 100000
E 252 631 100000
E 253 632 100000
E 254 632 100000
E 255 632 100000
E 256 632 100000
E 257 630 100000
END

SECTION Terminals
Terminals 64
T 569
T 570
T 571
T 572
T 573
T 574
T 575
T 576
T 577
T 578
T 579
T 580
T 581
T 582
T 583
T 584
T 585
T 586
T 587
T 588
T 589
T 590
T 591
T 592
T 593
T 594
T 595
T 596
T 597
T 598
T 599
T 600
T 601
T 602
T 603
T 604
T 605
T 606
T 607
T 608
T 609
T 610
T 611
T 612
T 613
T 614
T 615
T 616
T 617
T 618
T 619
T 620
T 621
T 622
T 623
T 624
T 625
T 626
T 627
T 628
T 629
T 630
T 631
T 632
END

SECTION Tree Decomposition
c We do not guarantee that this tree decomposition has minimum width.
s td 515 23 632
b 1 245 257 630
b 2 257 246 630
b 3 246 247 630
b 4 247 630 248
b 5 248 409
b 6 409 410 229
b 7 356 113 358 117
b 8 372 370 373 85
b 9 377 386 379 85
b 10 378 376 46 50
b 11 381 92 380 383
b 12 387 386 394 379
b 13 395 394 389 400
b 14 399 398 72 397
b 15 401 403 70 400
b 16 402 65 403 400
b 17 404 169 406 165
b 18 363 92 362 96
b 19 410 419 230 229
b 20 415 144 413 148
b 21 418 40 417 44
b 22 420 419 232 421
b 23 423 424 39 68
b 24 432 434 143 168
b 25 436 435 164 168
b 26 439 443 229 440
b 27 453 221 225 454
b 28 467 471 468 465
b 29 475 241 478 237
b 30 477 473 205 480
b 31 481 482 461 472
b 32 491 482 469 492
b 33 493 233 495 237
b 34 516 514 200 204
b 35 518 523 34 517
b 36 519 217 520 507
b 37 524 523 21 36
b 38 527 195 522 199
b 39 528 33 530 29
b 40 141 604 142 416
b 41 537 536 535 544
b 42 541 529 543 534
b 43 547 550 546 32
b 44 549 543 535 13
b 45 552 20 551 16
b 46 555 556 553 490
b 47 560 562 559 28
b 48 561 562 556 559
b 49 564 16 563 12
b 50 568 4 567 12
b 51 177 613 178 173
b 52 181 614 182 276
b 53 196 617 195 200
b 54 209 621 210 421
b 55 213 214 622 265
b 56 214 215 622 265
b 57 215 622 265 216
b 58 220 623 219 526
b 59 352 336 350 60
b 60 24 574 23 536
b 61 1 562 565 569
b 62 2 3 566 569
b 63 249 631 250 258
b 64 252 631 251 261
b 65 253 632 254 5
b 66 64 584 63 336
b 67 262 263 256 258
b 68 264 260 263 265
b 69 266 267 216 191
b 70 268 269 216 137
b 71 270 271 191 187
b 72 272 273 277 137
b 73 279 277 282 133
b 74 280 273 277 282
b 75 281 283 157 188
b 76 284 286 109 285
b 77 291 295 293 188
b 78 301 300 299 108
b 79 304 302 134 130
b 80 306 84 303 319
b 81 309 311 288 77
b 82 321 320 80 76
b 83 81 589 82 288
b 84 323 73 325 327
b 85 337 333 335 353
b 86 338 340 117 121
b 87 545 18 551 14 544
b 88 583 58 59 60 57
b 89 542 26 548 539 540
b 90 617 194 195 200 193
b 91 342 344 57 76 326
b 92 343 345 357 100 327
b 93 346 348 119 340 123
b 94 347 349 95 99 341
b 95 22 574 23 531 21
b 96 351 345 335 365 353
b 97 632 255 254 5 256
b 98 355 354 94 362 90
b 99 533 23 536 531 535
b 100 627 234 233 235 236
b 101 359 345 365 361 357
b 102 360 96 374 361 357
b 103 364 115 358 366 119
b 104 367 365 49 353 369
b 105 368 365 369 361 384
b 106 631 250 251 261 258
b 107 525 219 520 513 526
b 108 371 370 373 90 380
b 109 386 394 379 85 116
b 110 6 254 5 7 570
b 111 521 522 193 515 197
b 112 375 374 361 384 391
b 113 625 227 226 228 225
b 114 382 87 373 380 383
b 115 385 45 397 369 384
b 116 623 218 217 219 526
b 117 624 221 222 224 223
b 118 388 394 379 389 87
b 119 392 390 88 69 393
b 120 512 504 515 197 511
b 121 396 398 397 384 391
b 122 620 208 207 206 205
b 123 509 520 513 506 507
b 124 508 504 197 510 201
b 125 621 211 210 212 421
b 126 619 202 201 203 204
b 127 505 501 497 506 507
b 128 405 142 413 146 176
b 129 443 444 229 440 225
b 130 408 38 417 407 42
b 131 411 67 403 71 412
b 132 500 486 496 502 503
b 133 499 235 495 239 501
b 134 616 190 189 191 192
b 135 414 171 406 416 167
b 136 613 179 178 173 180
b 137 424 39 40 68 517
b 138 612 173 175 174 176
b 139 422 210 425 421 428
b 140 426 425 212 433 161
b 141 427 232 449 421 428
b 142 429 212 161 165 430
b 143 489 486 502 205 224
b 144 611 170 172 169 171
b 145 431 425 433 428 446
b 146 609 162 164 161 163
b 147 485 243 478 239 488
b 148 484 553 483 490 472
b 149 437 433 450 161 438
b 150 607 154 155 156 153
b 151 110 596 111 286 109
b 152 441 231 440 442 445
b 153 479 222 486 476 496
b 154 608 158 157 160 159
b 155 470 469 29 492 458
b 156 112 596 111 300 288
b 157 474 473 480 464 483
b 158 447 442 445 228 449
b 159 448 433 446 450 457
b 160 434 143 144 168 517
b 161 451 455 449 464 428
b 162 452 456 462 450 438
b 163 459 227 223 454 460
b 164 463 473 460 449 464
b 165 114 597 113 115 358
b 166 466 538 468 465 457
b 167 595 107 106 108 105
b 168 603 139 140 137 138
b 169 8 7 570 256 258
b 170 605 147 146 145 148
b 171 604 142 143 144 416
b 172 487 207 480 483 490
b 173 601 131 129 130 132
b 174 494 488 497 476 496
b 175 498 497 506 496 503
b 176 600 126 125 127 128
b 177 599 122 121 123 124
b 178 597 113 115 358 116
b 179 532 35 530 31 534
b 180 584 62 63 336 61
b 181 593 98 97 99 100
b 182 591 91 92 90 89
b 183 585 66 65 67 68
b 184 37 578 38 407 412
b 185 589 83 82 84 288
b 186 587 74 73 75 76
b 187 139 140 274 137 138
b 188 574 23 536 531 21
b 189 149 606 145 150 153
b 190 582 56 53 54 55
b 191 23 536 531 535 21
b 192 586 70 71 72 69
b 193 590 86 87 88 85
b 194 594 104 103 102 101
b 195 575 27 25 26 28
b 196 598 118 119 117 120
b 197 602 136 133 134 135
b 198 610 166 165 167 168
b 199 629 242 241 244 243
b 200 615 185 186 187 188
b 201 618 198 200 199 197
b 202 614 182 183 276 184
b 203 626 230 231 229 232
b 204 3 4 567 566 569
b 205 179 178 173 175 180
b 206 178 173 175 180 174
b 207 581 51 50 52 49
b 208 182 183 276 278 184
b 209 183 276 278 290 184
b 210 48 580 44 47 52
b 211 190 189 191 186 192
b 212 194 195 522 200 193
b 213 579 43 41 42 44
b 214 211 210 425 212 421
b 215 195 522 200 199 193
b 216 210 425 212 421 428
b 217 576 30 31 32 29
b 218 628 240 237 238 239
b 219 577 34 33 35 36
b 220 218 217 219 520 526
b 221 4 567 566 12 569
b 222 234 233 235 236 495
b 223 217 219 520 526 507
b 224 219 520 513 526 507
b 225 242 241 244 243 478
b 226 520 513 526 506 507
b 227 233 235 236 495 237
b 228 241 244 243 478 237
b 229 571 11 10 12 9
b 230 62 63 336 328 61
b 231 573 19 20 18 17
b 232 572 15 16 14 13
b 233 250 251 261 259 258
b 234 251 261 259 260 258
b 235 63 334 336 328 61
b 236 255 254 5 7 256
b 237 567 566 11 12 569
b 238 261 259 260 265 258
b 239 259 260 263 265 258
b 240 263 265 256 258
b 241 265 256 258 216
b 242 254 5 7 570 256
b 243 269 216 137 138 109
b 244 66 65 67 403 68
b 245 588 78 79 80 77
b 246 267 216 191 137 192
b 247 65 67 403 68 400
b 248 275 140 274 105 296
b 249 276 278 290 184 185
b 250 554 556 559 26 553
b 251 557 13 558 9 32
b 252 278 290 184 185 186
b 253 287 286 299 106 285
b 254 289 82 303 311 288
b 255 283 158 295 157 188
b 256 292 290 184 157 188
b 257 294 282 274 135 296
b 258 297 295 293 129 160
b 259 19 20 18 551 17
b 260 298 111 286 300 299
b 261 305 308 101 105 296
b 262 307 184 157 153 310
b 263 592 95 94 96 93
b 264 312 73 313 77 108
b 265 314 107 308 103 316
b 266 315 155 159 310 318
b 267 317 303 319 311 79
b 268 20 18 551 16 17
b 269 322 125 324 121 318
b 270 329 345 335 325 327
b 271 83 82 84 303 288
b 272 330 332 127 324 123
b 273 331 333 335 75 325
b 274 82 84 303 311 288
b 275 334 336 350 328 61
b 276 84 303 319 311 288
b 277 339 97 93 128 341
b 278 336 350 328 60 61
b 279 303 319 311 79 288
b 280 536 531 535 544 17 21
b 281 86 379 87 88 373 85
b 282 350 328 344 59 60 61
b 283 91 92 362 90 380 89
b 284 529 543 531 21 36 534
b 285 523 34 35 21 36 517
b 286 376 46 45 50 49 369
b 287 514 200 199 510 203 204
b 288 98 97 102 99 100 341
b 289 513 526 506 507 515 511
b 290 419 230 231 229 232 421
b 291 126 125 127 130 324 128
b 292 154 155 156 150 153 310
b 293 482 461 462 469 472 492
b 294 471 468 464 465 483 472
b 295 122 340 324 121 123 124
b 296 444 229 440 445 226 225
b 297 113 115 358 148 117 116
b 298 30 530 31 32 539 29
b 299 152 606 156 151 148 117
b 300 118 358 119 340 117 120
b 301 596 111 286 300 288 109
b 302 566 11 10 12 565 569
b 303 111 286 300 288 299 109
b 304 578 38 39 40 407 412
b 305 435 164 163 167 168 430
b 306 319 311 79 80 288 61
b 307 27 25 559 26 28 548
b 308 162 164 161 163 438 430
b 309 166 406 165 167 168 430
b 310 170 174 172 169 171 406
b 311 173 175 180 174 169 176
b 312 43 41 417 42 44 47
b 313 175 180 174 169 171 176
b 314 180 174 169 171 176 145
b 315 189 216 191 185 186 192
b 316 202 206 510 201 203 204
b 317 51 55 50 47 52 49
b 318 208 207 206 204 205 490
b 319 198 522 200 199 197 510
b 320 580 46 44 45 47 52
b 321 302 293 133 134 129 130
b 322 56 53 60 54 55 52
b 323 235 236 495 237 239 501
b 324 236 495 237 239 501 507
b 325 495 237 238 239 501 507
b 326 230 231 229 440 232 421
b 327 15 551 16 14 13 563
b 328 58 344 59 60 54 57
b 329 244 243 478 237 488 476
b 330 243 478 237 239 488 476
b 331 562 556 559 28 565 569
b 332 478 237 238 239 488 476
b 333 147 413 146 145 151 148
b 334 67 403 71 412 68 400
b 335 271 191 187 188 192 133
b 336 131 127 129 130 135 132
b 337 403 70 71 412 68 400
b 338 273 277 282 274 137 138
b 339 18 551 16 14 544 17
b 340 550 546 9 32 28 548
b 341 526 506 507 193 515 511
b 342 74 73 313 75 76 325
b 343 78 311 79 80 313 77
b 344 320 79 80 313 75 76
b 345 328 344 59 60 61 326
b 346 398 71 72 397 384 391 393
b 347 551 16 14 544 17 13 563
b 348 104 103 102 316 100 101 327
b 349 332 127 324 123 93 124 128
b 350 348 119 340 123 89 120 124
b 351 349 95 96 357 99 100 341
b 352 461 462 469 472 492 450 457
b 353 456 462 469 450 163 438 458
b 354 455 449 464 465 428 446 457
b 355 115 358 366 119 148 117 116
b 356 136 133 134 135 101 132 296
b 357 538 468 465 539 540 29 457
b 358 142 143 144 413 146 416 176
b 359 158 295 157 188 160 159 310
b 360 34 33 35 530 21 36 517
b 361 38 39 40 417 407 42 412
b 362 11 10 563 12 9 565 569
b 363 174 172 169 171 406 176 145
b 364 172 169 171 406 416 176 145
b 365 354 94 362 90 89 93 124
b 366 169 171 406 416 176 165 145
b 367 171 406 416 176 165 167 145
b 368 425 212 433 421 428 446 161
b 369 16 14 544 17 13 563 12
b 370 10 563 12 558 9 565 569
b 371 286 300 288 299 106 109 285
b 372 140 274 137 138 105 285 296
b 373 221 222 476 224 223 225 454
b 374 14 544 17 13 563 12 558
b 375 231 229 440 232 442 445 421
b 376 240 237 238 239 488 501 497
b 377 394 379 389 87 400 85 116
b 378 390 88 383 374 69 391 393
b 379 290 184 185 186 187 157 188
b 380 543 531 535 13 21 36 534
b 381 370 373 90 380 85 89 120
b 382 277 282 274 137 138 192 133
b 383 522 200 199 193 515 197 510
b 384 311 79 80 313 288 77 61
b 385 333 335 57 353 75 76 325
b 386 546 9 31 32 28 548 539
b 387 531 535 544 17 13 21 36 534
b 388 237 238 239 488 501 497 507 476
b 389 488 501 497 507 476 496
b 390 501 497 506 507 476 496
b 391 497 506 507 476 496 503
b 392 155 156 150 151 153 159 310 318
b 393 33 35 530 21 36 29 458 517
b 394 506 507 193 515 511 476 496 503
b 395 227 445 226 228 223 225 454 460
b 396 229 440 232 442 445 226 225 421
b 397 504 515 197 511 510 201 502 503
b 398 344 59 60 54 57 61 76 326
b 399 379 389 87 88 373 400 85 116
b 400 556 559 26 553 28 565 569 490
b 401 473 205 224 480 460 449 464 483
b 402 107 308 103 299 106 108 316 105
b 403 358 366 119 340 148 117 116 120
b 404 79 80 313 288 77 61 75 76
b 405 41 417 407 42 44 45 397 47
b 406 184 185 186 187 157 188 153 310
b 407 80 313 288 77 61 75 76 326
b 408 606 156 145 150 151 148 117 153
b 409 212 433 421 428 446 161 165 430
b 410 25 559 26 553 28 548 540 492
b 411 92 362 96 90 380 383 374 89
b 412 39 40 417 407 42 412 68 517
b 413 200 199 193 515 197 510 203 204
b 414 40 417 407 42 44 412 68 517
b 415 207 206 203 204 205 480 483 490
b 416 53 60 54 55 52 57 49 353
b 417 216 191 185 186 137 138 192 109
b 418 222 486 476 496 224 223 225 454
b 419 59 60 54 55 57 61 76 326
b 420 232 442 445 226 225 449 421 428
b 421 143 144 413 146 416 176 168 517
b 422 389 87 88 373 69 400 85 116
b 423 144 413 146 416 176 168 148 517
b 424 300 288 77 299 106 108 109 285
b 425 70 71 412 68 72 69 393 400
b 426 366 119 340 148 117 85 116 120
b 427 295 293 157 188 129 160 159 310
b 428 406 416 176 165 167 168 430 145
b 429 345 335 365 353 361 357 100 325 327
b 430 544 17 13 563 12 558 21 36 534
b 431 125 127 129 130 160 324 121 318 128
b 432 468 464 465 483 539 540 29 472 457
b 433 87 88 373 380 383 69 400 85 116
b 434 282 274 137 138 192 133 134 135 296
b 435 442 445 226 228 225 449 421 428 446
b 436 97 102 93 99 100 101 128 132 341
b 437 164 161 163 438 458 167 168 430 517
b 438 46 42 44 45 50 47 52 49 369
b 439 462 469 472 492 450 457 163 438 458
b 440 206 510 201 203 204 205 480 483 490
b 441 469 29 472 492 450 457 163 438 458
b 442 13 563 12 558 9 21 32 36 534
b 443 35 530 21 31 36 534 29 458 517
b 444 413 146 416 176 168 145 151 148 517
b 445 95 94 362 96 357 93 99 100 341
b 446 146 416 176 168 145 150 151 148 517
b 447 73 313 77 108 316 75 76 325 327
b 448 60 54 55 52 57 49 353 61 76 326
b 449 274 137 138 192 133 134 135 105 285 296
b 450 193 515 197 511 510 203 204 476 496 503
b 451 54 55 50 52 57 49 353 61 76 326
b 452 119 340 148 117 123 85 89 116 120 124
b 453 563 12 558 9 21 32 36 534 565 569
b 454 55 50 47 52 57 49 353 61 76 326
b 455 433 421 428 446 450 457 161 438 165 430
b 456 417 407 42 44 45 412 68 397 47 517
b 457 486 476 496 502 503 205 224 223 225 454
b 458 308 103 102 299 106 108 316 101 105 296
b 459 191 185 186 187 188 137 138 192 133 109
b 460 530 21 31 32 36 534 539 29 458 517
b 461 407 42 44 45 412 68 72 397 47 517
b 462 559 26 553 28 548 565 569 490 540 492
b 463 293 157 188 133 134 129 130 160 159 310
b 464 26 553 28 548 565 569 490 539 540 492
b 465 71 412 68 72 397 69 384 391 393 400
b 466 340 148 117 324 121 123 85 89 116 120 124
b 467 9 21 31 32 36 534 28 548 565 569 539
b 468 88 373 380 383 374 69 391 393 400 85 116
b 469 335 365 57 353 361 357 75 76 100 325 327
b 470 445 226 228 223 225 454 460 449 421 428 446
b 471 228 223 225 454 460 449 465 421 428 446
b 472 416 176 165 167 168 430 145 150 151 148 517
b 473 515 197 511 510 201 203 204 476 496 502 503
b 474 553 28 548 565 569 483 490 539 540 472 492
b 475 156 145 150 151 148 117 121 153 159 310 318
b 476 94 362 96 90 357 89 93 99 100 124 341
b 477 313 288 77 108 316 61 75 76 325 326 327
b 478 103 102 299 106 108 316 99 100 101 105 296 327
b 479 185 186 187 157 188 137 138 192 133 153 310 109
b 480 510 201 203 204 476 496 502 503 205 480 483 490
b 481 476 496 502 503 205 224 480 223 225 454 483 490
b 482 205 224 480 223 225 454 460 449 464 483 490
b 483 223 225 454 460 449 464 465 483 490 421 428 446
b 484 449 464 465 483 490 421 428 446 457
b 485 464 465 483 490 539 540 29 472 421 428 446 457
b 486 21 31 32 36 534 28 548 565 569 539 29 458 517
b 487 127 129 130 135 160 324 121 123 318 93 124 128 132
b 488 42 44 45 412 68 72 397 50 47 52 49 369 517
b 489 45 412 68 72 397 50 47 52 49 369 384 517
b 490 28 548 565 569 483 490 539 540 29 472 492 458 517
b 491 373 90 380 383 374 69 391 393 400 85 89 116 120
b 492 483 490 539 540 29 472 492 421 428 446 457 458 517
b 493 29 472 492 421 428 446 450 457 163 438 458 517
b 494 421 428 446 450 457 161 163 438 458 165 430 517
b 495 161 163 438 458 165 167 168 430 517
b 496 145 150 151 148 117 121 153 159 310 318 517
b 497 362 96 90 380 383 374 357 89 93 99 100 124 341
b 498 365 57 49 353 369 361 357 384 75 76 100 325 327
b 499 96 90 380 383 374 361 357 89 93 99 100 124 341
b 500 157 188 137 138 192 133 134 129 130 160 153 159 310 109
b 501 288 77 299 106 108 316 109 61 75 76 285 325 326 327
b 502 412 68 72 397 50 47 52 49 369 69 384 391 393 400 517
b 503 148 117 324 121 123 153 159 310 318 85 89 116 120 124 517
b 504 102 299 106 108 316 93 99 100 101 105 128 132 296 327 341
b 505 137 138 192 133 134 129 130 135 160 153 159 310 109 105 285 296
b 506 133 134 129 130 135 160 153 159 310 109 101 105 132 285 296
b 507 50 47 52 57 49 353 369 69 384 391 393 400 61 76 326 517
b 508 90 380 383 374 361 69 357 391 393 400 85 89 93 99 100 116 120 124 341
b 509 374 361 69 357 384 391 393 400 85 89 93 99 100 116 120 124 341
b 510 57 49 353 369 361 69 357 384 391 393 400 61 75 76 100 325 326 327 517
b 511 129 130 135 160 324 121 123 153 159 310 318 109 93 101 105 124 128 132 285 296
b 512 299 106 108 316 109 61 75 76 93 99 100 101 105 128 132 285 296 325 326 327 341
b 513 324 121 123 153 159 310 318 109 85 89 93 101 105 116 120 124 128 132 285 296 517
b 514 361 69 357 384 391 393 400 61 75 76 85 89 93 99 100 116 120 124 325 326 327 341 517
b 515 109 61 75 76 85 89 93 99 100 101 105 116 120 124 128 132 285 296 325 326 327 341 517
1 2
2 3
3 4
4 5
5 6
6 19
19 290
290 326
326 375
375 396
396 420
420 435
435 470
470 471
471 483
483 482
483 484
482 481
481 457
481 480
484 485
485 492
492 490
490 474
492 493
474 464
493 494
464 462
494 455
480 473
473 450
485 432
490 486
486 467
486 460
460 443
493 441
441 439
480 440
443 393
467 453
453 442
482 401
440 415
442 430
457 418
470 395
494 495
495 437
462 410
462 400
455 409
473 397
453 370
484 354
430 374
439 353
430 387
418 373
467 386
439 352
409 368
393 360
370 362
374 369
387 380
369 347
450 394
450 413
413 383
432 357
460 298
396 296
440 316
415 318
495 472
472 446
446 444
472 428
444 423
423 421
428 367
421 358
367 366
366 364
364 363
437 308
410 307
400 331
387 280
386 340
352 293
347 339
347 327
394 391
394 341
413 287
360 285
383 319
362 302
437 305
472 496
496 475
496 503
503 513
513 511
513 515
515 512
515 514
514 509
509 508
514 510
512 504
511 506
510 507
506 505
511 487
512 501
508 499
508 491
510 498
505 500
499 497
504 478
507 502
502 489
489 488
503 466
491 468
498 469
497 476
501 477
466 452
507 454
454 451
451 448
505 449
500 463
500 479
479 459
478 458
502 465
488 461
461 456
449 434
468 433
477 447
476 445
469 429
504 436
487 431
488 438
452 426
448 419
448 416
463 427
479 406
459 417
458 402
465 425
456 405
456 414
477 407
433 422
426 403
419 398
414 412
407 404
422 399
475 408
475 392
501 424
497 411
469 385
476 365
452 350
449 372
465 346
434 382
445 351
427 359
406 379
403 355
412 361
404 384
399 377
468 378
424 371
506 356
487 349
491 381
478 348
454 317
463 321
459 335
447 342
436 288
431 291
438 286
438 320
416 322
417 315
425 337
405 312
403 300
398 328
398 345
404 344
399 281
408 299
392 292
411 283
382 338
355 297
361 304
384 343
384 306
371 303
466 295
337 334
345 282
303 301
444 333
428 309
380 284
363 310
363 314
314 313
313 311
391 390
390 389
389 388
388 376
388 332
388 325
332 330
325 324
330 329
324 323
341 289
487 336
432 294
479 200
443 179
458 261
441 155
434 257
433 114
447 264
445 263
429 92
429 96
429 101
429 270
436 277
431 269
427 258
406 262
417 246
417 243
402 167
402 265
425 192
398 91
412 137
442 251
408 189
392 266
401 157
401 164
385 273
365 98
350 93
372 187
372 248
415 172
346 121
351 94
359 154
359 255
379 252
379 256
355 103
361 130
356 197
378 119
349 272
381 108
348 194
395 113
317 207
395 163
342 186
288 181
291 176
320 210
322 190
315 211
312 213
300 196
328 88
281 193
292 150
283 182
297 178
304 184
343 245
306 279
303 260
295 177
334 131
334 247
400 250
301 151
301 156
333 170
282 278
309 198
418 153
310 144
375 152
457 132
377 118
311 138
409 142
390 127
457 143
389 174
377 109
397 124
336 173
397 120
376 218
330 147
329 228
323 227
323 133
289 226
354 161
353 162
187 168
373 117
252 249
211 134
368 140
368 145
368 216
360 219
178 165
279 267
279 276
247 244
278 275
362 229
228 225
227 222
226 123
226 224
249 209
216 139
216 214
276 274
244 183
275 235
383 111
225 199
222 100
224 107
224 223
209 208
383 215
357 166
214 125
274 254
274 271
235 230
223 220
208 202
215 212
298 217
271 185
230 180
220 116
296 129
212 90
316 126
318 122
420 141
421 160
367 135
358 128
358 171
435 158
308 146
307 195
280 191
191 99
191 188
188 95
339 87
339 268
268 259
259 231
327 232
391 175
311 206
206 205
474 148
205 136
319 201
302 237
237 221
221 204
290 203
464 89
509 112
455 149
455 159
371 253
499 102
498 104
498 105
489 115
294 28
268 45
180 66
447 84
393 39
427 77
414 21
290 22
424 78
411 11
411 18
385 85
346 14
382 73
384 81
377 13
381 8
321 79
335 71
286 10
337 15
344 82
338 72
338 74
297 7
400 46
284 42
246 69
243 70
137 23
373 27
255 75
247 16
278 59
369 49
109 9
109 12
380 44
228 29
227 33
276 80
223 36
215 38
125 54
202 52
185 83
171 40
116 58
188 60
90 53
160 24
204 62
129 26
423 20
366 17
331 47
331 48
331 61
280 41
340 43
293 31
293 32
287 34
285 35
285 37
136 51
305 25
371 76
221 50
401 30
466 86
417 57
57 56
56 55
57 241
241 240
240 67
240 239
239 238
238 234
234 233
233 106
239 68
106 64
106 63
240 169
169 242
242 110
242 236
236 97
97 65
END

EOF
